NAME: instance_2789
TYPE: TSP
DIMENSION: 20
EDGE_WEIGHT_TYPE: EUC_2D
NODE_COORD_SECTION
0 27.07 8.73
1 74.24 56.42
2 4.78 68.62
3 91.21 15.68
4 35.48 31.42
5 71.87 19.28
6 29.42 6.61
7 43.35 95.50
8 81.08 62.48
9 53.89 17.28
10 40.44 52.68
11 34.67 25.97
12 15.33 78.78
13 33.50 50.29
14 79.70 68.98
15 76.89 99.68
16 11.07 13.51
17 74.76 96.97
18 53.06 45.64
19 59.54 9.45
EOF
